100
100 100
1 70 627
2 70 22
3 69 873
4 69 60
5 68 974
6 67 908
7 67 602
8 67 485
9 67 229
10 66 813
11 66 261
12 66 137
13 65 574
14 65 16
15 65 844
16 65 712
17 65 381
18 65 49
19 64 954
20 64 474
21 64 442
22 62 411
23 62 244
24 61 32
25 61 278
26 61 454
27 61 415
28 61 7
29 60 824
30 60 277
31 59 32
32 59 974
33 59 814
34 59 904
35 59 609
36 58 194
37 57 924
38 57 356
39 57 398
40 53 456
41 53 259
42 52 361
43 51 165
44 50 199
45 50 566
46 50 857
47 49 598
48 49 114
49 48 716
50 48 276
51 47 706
52 47 896
53 47 46
54 47 968
55 46 103
56 46 775
57 46 778
58 45 313
59 45 856
60 45 133
61 45 850
62 43 150
63 41 324
64 41 512
65 40 81
66 40 949
67 39 871
68 39 338
69 38 685
70 38 949
71 38 212
72 38 972
73 37 174
74 36 958
75 36 410
76 34 751
77 34 494
78 34 124
79 34 549
80 33 58
81 33 379
82 33 640
83 31 465
84 31 744
85 28 506
86 28 753
87 27 753
88 27 731
89 26 862
90 26 977
91 26 55
92 25 953
93 25 340
94 24 967
95 23 998
96 23 638
97 23 492
98 22 821
99 20 460
100 20 84
